c clique coloring problem for 10 -- 5 -- 4
p cnf 190 1375
1 6 11 16 21 26 31 36 41 46 0
2 7 12 17 22 27 32 37 42 47 0
3 8 13 18 23 28 33 38 43 48 0
4 9 14 19 24 29 34 39 44 49 0
5 10 15 20 25 30 35 40 45 50 0
-2 -1 0
-7 -6 0
-12 -11 0
-17 -16 0
-22 -21 0
-27 -26 0
-32 -31 0
-37 -36 0
-42 -41 0
-47 -46 0
-3 -1 0
-8 -6 0
-13 -11 0
-18 -16 0
-23 -21 0
-28 -26 0
-33 -31 0
-38 -36 0
-43 -41 0
-48 -46 0
-3 -2 0
-8 -7 0
-13 -12 0
-18 -17 0
-23 -22 0
-28 -27 0
-33 -32 0
-38 -37 0
-43 -42 0
-48 -47 0
-4 -1 0
-9 -6 0
-14 -11 0
-19 -16 0
-24 -21 0
-29 -26 0
-34 -31 0
-39 -36 0
-44 -41 0
-49 -46 0
-4 -2 0
-9 -7 0
-14 -12 0
-19 -17 0
-24 -22 0
-29 -27 0
-34 -32 0
-39 -37 0
-44 -42 0
-49 -47 0
-4 -3 0
-9 -8 0
-14 -13 0
-19 -18 0
-24 -23 0
-29 -28 0
-34 -33 0
-39 -38 0
-44 -43 0
-49 -48 0
-5 -1 0
-10 -6 0
-15 -11 0
-20 -16 0
-25 -21 0
-30 -26 0
-35 -31 0
-40 -36 0
-45 -41 0
-50 -46 0
-5 -2 0
-10 -7 0
-15 -12 0
-20 -17 0
-25 -22 0
-30 -27 0
-35 -32 0
-40 -37 0
-45 -42 0
-50 -47 0
-5 -3 0
-10 -8 0
-15 -13 0
-20 -18 0
-25 -23 0
-30 -28 0
-35 -33 0
-40 -38 0
-45 -43 0
-50 -48 0
-5 -4 0
-10 -9 0
-15 -14 0
-20 -19 0
-25 -24 0
-30 -29 0
-35 -34 0
-40 -39 0
-45 -44 0
-50 -49 0
-2 -6 61 0
-2 -11 71 0
-2 -16 81 0
-2 -21 91 0
-2 -26 101 0
-2 -31 111 0
-2 -36 121 0
-2 -41 131 0
-2 -46 141 0
-7 -1 52 0
-7 -11 72 0
-7 -16 82 0
-7 -21 92 0
-7 -26 102 0
-7 -31 112 0
-7 -36 122 0
-7 -41 132 0
-7 -46 142 0
-12 -1 53 0
-12 -6 63 0
-12 -16 83 0
-12 -21 93 0
-12 -26 103 0
-12 -31 113 0
-12 -36 123 0
-12 -41 133 0
-12 -46 143 0
-17 -1 54 0
-17 -6 64 0
-17 -11 74 0
-17 -21 94 0
-17 -26 104 0
-17 -31 114 0
-17 -36 124 0
-17 -41 134 0
-17 -46 144 0
-22 -1 55 0
-22 -6 65 0
-22 -11 75 0
-22 -16 85 0
-22 -26 105 0
-22 -31 115 0
-22 -36 125 0
-22 -41 135 0
-22 -46 145 0
-27 -1 56 0
-27 -6 66 0
-27 -11 76 0
-27 -16 86 0
-27 -21 96 0
-27 -31 116 0
-27 -36 126 0
-27 -41 136 0
-27 -46 146 0
-32 -1 57 0
-32 -6 67 0
-32 -11 77 0
-32 -16 87 0
-32 -21 97 0
-32 -26 107 0
-32 -36 127 0
-32 -41 137 0
-32 -46 147 0
-37 -1 58 0
-37 -6 68 0
-37 -11 78 0
-37 -16 88 0
-37 -21 98 0
-37 -26 108 0
-37 -31 118 0
-37 -41 138 0
-37 -46 148 0
-42 -1 59 0
-42 -6 69 0
-42 -11 79 0
-42 -16 89 0
-42 -21 99 0
-42 -26 109 0
-42 -31 119 0
-42 -36 129 0
-42 -46 149 0
-47 -1 60 0
-47 -6 70 0
-47 -11 80 0
-47 -16 90 0
-47 -21 100 0
-47 -26 110 0
-47 -31 120 0
-47 -36 130 0
-47 -41 140 0
-3 -6 61 0
-3 -11 71 0
-3 -16 81 0
-3 -21 91 0
-3 -26 101 0
-3 -31 111 0
-3 -36 121 0
-3 -41 131 0
-3 -46 141 0
-8 -1 52 0
-8 -11 72 0
-8 -16 82 0
-8 -21 92 0
-8 -26 102 0
-8 -31 112 0
-8 -36 122 0
-8 -41 132 0
-8 -46 142 0
-13 -1 53 0
-13 -6 63 0
-13 -16 83 0
-13 -21 93 0
-13 -26 103 0
-13 -31 113 0
-13 -36 123 0
-13 -41 133 0
-13 -46 143 0
-18 -1 54 0
-18 -6 64 0
-18 -11 74 0
-18 -21 94 0
-18 -26 104 0
-18 -31 114 0
-18 -36 124 0
-18 -41 134 0
-18 -46 144 0
-23 -1 55 0
-23 -6 65 0
-23 -11 75 0
-23 -16 85 0
-23 -26 105 0
-23 -31 115 0
-23 -36 125 0
-23 -41 135 0
-23 -46 145 0
-28 -1 56 0
-28 -6 66 0
-28 -11 76 0
-28 -16 86 0
-28 -21 96 0
-28 -31 116 0
-28 -36 126 0
-28 -41 136 0
-28 -46 146 0
-33 -1 57 0
-33 -6 67 0
-33 -11 77 0
-33 -16 87 0
-33 -21 97 0
-33 -26 107 0
-33 -36 127 0
-33 -41 137 0
-33 -46 147 0
-38 -1 58 0
-38 -6 68 0
-38 -11 78 0
-38 -16 88 0
-38 -21 98 0
-38 -26 108 0
-38 -31 118 0
-38 -41 138 0
-38 -46 148 0
-43 -1 59 0
-43 -6 69 0
-43 -11 79 0
-43 -16 89 0
-43 -21 99 0
-43 -26 109 0
-43 -31 119 0
-43 -36 129 0
-43 -46 149 0
-48 -1 60 0
-48 -6 70 0
-48 -11 80 0
-48 -16 90 0
-48 -21 100 0
-48 -26 110 0
-48 -31 120 0
-48 -36 130 0
-48 -41 140 0
-3 -7 61 0
-3 -12 71 0
-3 -17 81 0
-3 -22 91 0
-3 -27 101 0
-3 -32 111 0
-3 -37 121 0
-3 -42 131 0
-3 -47 141 0
-8 -2 52 0
-8 -12 72 0
-8 -17 82 0
-8 -22 92 0
-8 -27 102 0
-8 -32 112 0
-8 -37 122 0
-8 -42 132 0
-8 -47 142 0
-13 -2 53 0
-13 -7 63 0
-13 -17 83 0
-13 -22 93 0
-13 -27 103 0
-13 -32 113 0
-13 -37 123 0
-13 -42 133 0
-13 -47 143 0
-18 -2 54 0
-18 -7 64 0
-18 -12 74 0
-18 -22 94 0
-18 -27 104 0
-18 -32 114 0
-18 -37 124 0
-18 -42 134 0
-18 -47 144 0
-23 -2 55 0
-23 -7 65 0
-23 -12 75 0
-23 -17 85 0
-23 -27 105 0
-23 -32 115 0
-23 -37 125 0
-23 -42 135 0
-23 -47 145 0
-28 -2 56 0
-28 -7 66 0
-28 -12 76 0
-28 -17 86 0
-28 -22 96 0
-28 -32 116 0
-28 -37 126 0
-28 -42 136 0
-28 -47 146 0
-33 -2 57 0
-33 -7 67 0
-33 -12 77 0
-33 -17 87 0
-33 -22 97 0
-33 -27 107 0
-33 -37 127 0
-33 -42 137 0
-33 -47 147 0
-38 -2 58 0
-38 -7 68 0
-38 -12 78 0
-38 -17 88 0
-38 -22 98 0
-38 -27 108 0
-38 -32 118 0
-38 -42 138 0
-38 -47 148 0
-43 -2 59 0
-43 -7 69 0
-43 -12 79 0
-43 -17 89 0
-43 -22 99 0
-43 -27 109 0
-43 -32 119 0
-43 -37 129 0
-43 -47 149 0
-48 -2 60 0
-48 -7 70 0
-48 -12 80 0
-48 -17 90 0
-48 -22 100 0
-48 -27 110 0
-48 -32 120 0
-48 -37 130 0
-48 -42 140 0
-4 -6 61 0
-4 -11 71 0
-4 -16 81 0
-4 -21 91 0
-4 -26 101 0
-4 -31 111 0
-4 -36 121 0
-4 -41 131 0
-4 -46 141 0
-9 -1 52 0
-9 -11 72 0
-9 -16 82 0
-9 -21 92 0
-9 -26 102 0
-9 -31 112 0
-9 -36 122 0
-9 -41 132 0
-9 -46 142 0
-14 -1 53 0
-14 -6 63 0
-14 -16 83 0
-14 -21 93 0
-14 -26 103 0
-14 -31 113 0
-14 -36 123 0
-14 -41 133 0
-14 -46 143 0
-19 -1 54 0
-19 -6 64 0
-19 -11 74 0
-19 -21 94 0
-19 -26 104 0
-19 -31 114 0
-19 -36 124 0
-19 -41 134 0
-19 -46 144 0
-24 -1 55 0
-24 -6 65 0
-24 -11 75 0
-24 -16 85 0
-24 -26 105 0
-24 -31 115 0
-24 -36 125 0
-24 -41 135 0
-24 -46 145 0
-29 -1 56 0
-29 -6 66 0
-29 -11 76 0
-29 -16 86 0
-29 -21 96 0
-29 -31 116 0
-29 -36 126 0
-29 -41 136 0
-29 -46 146 0
-34 -1 57 0
-34 -6 67 0
-34 -11 77 0
-34 -16 87 0
-34 -21 97 0
-34 -26 107 0
-34 -36 127 0
-34 -41 137 0
-34 -46 147 0
-39 -1 58 0
-39 -6 68 0
-39 -11 78 0
-39 -16 88 0
-39 -21 98 0
-39 -26 108 0
-39 -31 118 0
-39 -41 138 0
-39 -46 148 0
-44 -1 59 0
-44 -6 69 0
-44 -11 79 0
-44 -16 89 0
-44 -21 99 0
-44 -26 109 0
-44 -31 119 0
-44 -36 129 0
-44 -46 149 0
-49 -1 60 0
-49 -6 70 0
-49 -11 80 0
-49 -16 90 0
-49 -21 100 0
-49 -26 110 0
-49 -31 120 0
-49 -36 130 0
-49 -41 140 0
-4 -7 61 0
-4 -12 71 0
-4 -17 81 0
-4 -22 91 0
-4 -27 101 0
-4 -32 111 0
-4 -37 121 0
-4 -42 131 0
-4 -47 141 0
-9 -2 52 0
-9 -12 72 0
-9 -17 82 0
-9 -22 92 0
-9 -27 102 0
-9 -32 112 0
-9 -37 122 0
-9 -42 132 0
-9 -47 142 0
-14 -2 53 0
-14 -7 63 0
-14 -17 83 0
-14 -22 93 0
-14 -27 103 0
-14 -32 113 0
-14 -37 123 0
-14 -42 133 0
-14 -47 143 0
-19 -2 54 0
-19 -7 64 0
-19 -12 74 0
-19 -22 94 0
-19 -27 104 0
-19 -32 114 0
-19 -37 124 0
-19 -42 134 0
-19 -47 144 0
-24 -2 55 0
-24 -7 65 0
-24 -12 75 0
-24 -17 85 0
-24 -27 105 0
-24 -32 115 0
-24 -37 125 0
-24 -42 135 0
-24 -47 145 0
-29 -2 56 0
-29 -7 66 0
-29 -12 76 0
-29 -17 86 0
-29 -22 96 0
-29 -32 116 0
-29 -37 126 0
-29 -42 136 0
-29 -47 146 0
-34 -2 57 0
-34 -7 67 0
-34 -12 77 0
-34 -17 87 0
-34 -22 97 0
-34 -27 107 0
-34 -37 127 0
-34 -42 137 0
-34 -47 147 0
-39 -2 58 0
-39 -7 68 0
-39 -12 78 0
-39 -17 88 0
-39 -22 98 0
-39 -27 108 0
-39 -32 118 0
-39 -42 138 0
-39 -47 148 0
-44 -2 59 0
-44 -7 69 0
-44 -12 79 0
-44 -17 89 0
-44 -22 99 0
-44 -27 109 0
-44 -32 119 0
-44 -37 129 0
-44 -47 149 0
-49 -2 60 0
-49 -7 70 0
-49 -12 80 0
-49 -17 90 0
-49 -22 100 0
-49 -27 110 0
-49 -32 120 0
-49 -37 130 0
-49 -42 140 0
-4 -8 61 0
-4 -13 71 0
-4 -18 81 0
-4 -23 91 0
-4 -28 101 0
-4 -33 111 0
-4 -38 121 0
-4 -43 131 0
-4 -48 141 0
-9 -3 52 0
-9 -13 72 0
-9 -18 82 0
-9 -23 92 0
-9 -28 102 0
-9 -33 112 0
-9 -38 122 0
-9 -43 132 0
-9 -48 142 0
-14 -3 53 0
-14 -8 63 0
-14 -18 83 0
-14 -23 93 0
-14 -28 103 0
-14 -33 113 0
-14 -38 123 0
-14 -43 133 0
-14 -48 143 0
-19 -3 54 0
-19 -8 64 0
-19 -13 74 0
-19 -23 94 0
-19 -28 104 0
-19 -33 114 0
-19 -38 124 0
-19 -43 134 0
-19 -48 144 0
-24 -3 55 0
-24 -8 65 0
-24 -13 75 0
-24 -18 85 0
-24 -28 105 0
-24 -33 115 0
-24 -38 125 0
-24 -43 135 0
-24 -48 145 0
-29 -3 56 0
-29 -8 66 0
-29 -13 76 0
-29 -18 86 0
-29 -23 96 0
-29 -33 116 0
-29 -38 126 0
-29 -43 136 0
-29 -48 146 0
-34 -3 57 0
-34 -8 67 0
-34 -13 77 0
-34 -18 87 0
-34 -23 97 0
-34 -28 107 0
-34 -38 127 0
-34 -43 137 0
-34 -48 147 0
-39 -3 58 0
-39 -8 68 0
-39 -13 78 0
-39 -18 88 0
-39 -23 98 0
-39 -28 108 0
-39 -33 118 0
-39 -43 138 0
-39 -48 148 0
-44 -3 59 0
-44 -8 69 0
-44 -13 79 0
-44 -18 89 0
-44 -23 99 0
-44 -28 109 0
-44 -33 119 0
-44 -38 129 0
-44 -48 149 0
-49 -3 60 0
-49 -8 70 0
-49 -13 80 0
-49 -18 90 0
-49 -23 100 0
-49 -28 110 0
-49 -33 120 0
-49 -38 130 0
-49 -43 140 0
-5 -6 61 0
-5 -11 71 0
-5 -16 81 0
-5 -21 91 0
-5 -26 101 0
-5 -31 111 0
-5 -36 121 0
-5 -41 131 0
-5 -46 141 0
-10 -1 52 0
-10 -11 72 0
-10 -16 82 0
-10 -21 92 0
-10 -26 102 0
-10 -31 112 0
-10 -36 122 0
-10 -41 132 0
-10 -46 142 0
-15 -1 53 0
-15 -6 63 0
-15 -16 83 0
-15 -21 93 0
-15 -26 103 0
-15 -31 113 0
-15 -36 123 0
-15 -41 133 0
-15 -46 143 0
-20 -1 54 0
-20 -6 64 0
-20 -11 74 0
-20 -21 94 0
-20 -26 104 0
-20 -31 114 0
-20 -36 124 0
-20 -41 134 0
-20 -46 144 0
-25 -1 55 0
-25 -6 65 0
-25 -11 75 0
-25 -16 85 0
-25 -26 105 0
-25 -31 115 0
-25 -36 125 0
-25 -41 135 0
-25 -46 145 0
-30 -1 56 0
-30 -6 66 0
-30 -11 76 0
-30 -16 86 0
-30 -21 96 0
-30 -31 116 0
-30 -36 126 0
-30 -41 136 0
-30 -46 146 0
-35 -1 57 0
-35 -6 67 0
-35 -11 77 0
-35 -16 87 0
-35 -21 97 0
-35 -26 107 0
-35 -36 127 0
-35 -41 137 0
-35 -46 147 0
-40 -1 58 0
-40 -6 68 0
-40 -11 78 0
-40 -16 88 0
-40 -21 98 0
-40 -26 108 0
-40 -31 118 0
-40 -41 138 0
-40 -46 148 0
-45 -1 59 0
-45 -6 69 0
-45 -11 79 0
-45 -16 89 0
-45 -21 99 0
-45 -26 109 0
-45 -31 119 0
-45 -36 129 0
-45 -46 149 0
-50 -1 60 0
-50 -6 70 0
-50 -11 80 0
-50 -16 90 0
-50 -21 100 0
-50 -26 110 0
-50 -31 120 0
-50 -36 130 0
-50 -41 140 0
-5 -7 61 0
-5 -12 71 0
-5 -17 81 0
-5 -22 91 0
-5 -27 101 0
-5 -32 111 0
-5 -37 121 0
-5 -42 131 0
-5 -47 141 0
-10 -2 52 0
-10 -12 72 0
-10 -17 82 0
-10 -22 92 0
-10 -27 102 0
-10 -32 112 0
-10 -37 122 0
-10 -42 132 0
-10 -47 142 0
-15 -2 53 0
-15 -7 63 0
-15 -17 83 0
-15 -22 93 0
-15 -27 103 0
-15 -32 113 0
-15 -37 123 0
-15 -42 133 0
-15 -47 143 0
-20 -2 54 0
-20 -7 64 0
-20 -12 74 0
-20 -22 94 0
-20 -27 104 0
-20 -32 114 0
-20 -37 124 0
-20 -42 134 0
-20 -47 144 0
-25 -2 55 0
-25 -7 65 0
-25 -12 75 0
-25 -17 85 0
-25 -27 105 0
-25 -32 115 0
-25 -37 125 0
-25 -42 135 0
-25 -47 145 0
-30 -2 56 0
-30 -7 66 0
-30 -12 76 0
-30 -17 86 0
-30 -22 96 0
-30 -32 116 0
-30 -37 126 0
-30 -42 136 0
-30 -47 146 0
-35 -2 57 0
-35 -7 67 0
-35 -12 77 0
-35 -17 87 0
-35 -22 97 0
-35 -27 107 0
-35 -37 127 0
-35 -42 137 0
-35 -47 147 0
-40 -2 58 0
-40 -7 68 0
-40 -12 78 0
-40 -17 88 0
-40 -22 98 0
-40 -27 108 0
-40 -32 118 0
-40 -42 138 0
-40 -47 148 0
-45 -2 59 0
-45 -7 69 0
-45 -12 79 0
-45 -17 89 0
-45 -22 99 0
-45 -27 109 0
-45 -32 119 0
-45 -37 129 0
-45 -47 149 0
-50 -2 60 0
-50 -7 70 0
-50 -12 80 0
-50 -17 90 0
-50 -22 100 0
-50 -27 110 0
-50 -32 120 0
-50 -37 130 0
-50 -42 140 0
-5 -8 61 0
-5 -13 71 0
-5 -18 81 0
-5 -23 91 0
-5 -28 101 0
-5 -33 111 0
-5 -38 121 0
-5 -43 131 0
-5 -48 141 0
-10 -3 52 0
-10 -13 72 0
-10 -18 82 0
-10 -23 92 0
-10 -28 102 0
-10 -33 112 0
-10 -38 122 0
-10 -43 132 0
-10 -48 142 0
-15 -3 53 0
-15 -8 63 0
-15 -18 83 0
-15 -23 93 0
-15 -28 103 0
-15 -33 113 0
-15 -38 123 0
-15 -43 133 0
-15 -48 143 0
-20 -3 54 0
-20 -8 64 0
-20 -13 74 0
-20 -23 94 0
-20 -28 104 0
-20 -33 114 0
-20 -38 124 0
-20 -43 134 0
-20 -48 144 0
-25 -3 55 0
-25 -8 65 0
-25 -13 75 0
-25 -18 85 0
-25 -28 105 0
-25 -33 115 0
-25 -38 125 0
-25 -43 135 0
-25 -48 145 0
-30 -3 56 0
-30 -8 66 0
-30 -13 76 0
-30 -18 86 0
-30 -23 96 0
-30 -33 116 0
-30 -38 126 0
-30 -43 136 0
-30 -48 146 0
-35 -3 57 0
-35 -8 67 0
-35 -13 77 0
-35 -18 87 0
-35 -23 97 0
-35 -28 107 0
-35 -38 127 0
-35 -43 137 0
-35 -48 147 0
-40 -3 58 0
-40 -8 68 0
-40 -13 78 0
-40 -18 88 0
-40 -23 98 0
-40 -28 108 0
-40 -33 118 0
-40 -43 138 0
-40 -48 148 0
-45 -3 59 0
-45 -8 69 0
-45 -13 79 0
-45 -18 89 0
-45 -23 99 0
-45 -28 109 0
-45 -33 119 0
-45 -38 129 0
-45 -48 149 0
-50 -3 60 0
-50 -8 70 0
-50 -13 80 0
-50 -18 90 0
-50 -23 100 0
-50 -28 110 0
-50 -33 120 0
-50 -38 130 0
-50 -43 140 0
-5 -9 61 0
-5 -14 71 0
-5 -19 81 0
-5 -24 91 0
-5 -29 101 0
-5 -34 111 0
-5 -39 121 0
-5 -44 131 0
-5 -49 141 0
-10 -4 52 0
-10 -14 72 0
-10 -19 82 0
-10 -24 92 0
-10 -29 102 0
-10 -34 112 0
-10 -39 122 0
-10 -44 132 0
-10 -49 142 0
-15 -4 53 0
-15 -9 63 0
-15 -19 83 0
-15 -24 93 0
-15 -29 103 0
-15 -34 113 0
-15 -39 123 0
-15 -44 133 0
-15 -49 143 0
-20 -4 54 0
-20 -9 64 0
-20 -14 74 0
-20 -24 94 0
-20 -29 104 0
-20 -34 114 0
-20 -39 124 0
-20 -44 134 0
-20 -49 144 0
-25 -4 55 0
-25 -9 65 0
-25 -14 75 0
-25 -19 85 0
-25 -29 105 0
-25 -34 115 0
-25 -39 125 0
-25 -44 135 0
-25 -49 145 0
-30 -4 56 0
-30 -9 66 0
-30 -14 76 0
-30 -19 86 0
-30 -24 96 0
-30 -34 116 0
-30 -39 126 0
-30 -44 136 0
-30 -49 146 0
-35 -4 57 0
-35 -9 67 0
-35 -14 77 0
-35 -19 87 0
-35 -24 97 0
-35 -29 107 0
-35 -39 127 0
-35 -44 137 0
-35 -49 147 0
-40 -4 58 0
-40 -9 68 0
-40 -14 78 0
-40 -19 88 0
-40 -24 98 0
-40 -29 108 0
-40 -34 118 0
-40 -44 138 0
-40 -49 148 0
-45 -4 59 0
-45 -9 69 0
-45 -14 79 0
-45 -19 89 0
-45 -24 99 0
-45 -29 109 0
-45 -34 119 0
-45 -39 129 0
-45 -49 149 0
-50 -4 60 0
-50 -9 70 0
-50 -14 80 0
-50 -19 90 0
-50 -24 100 0
-50 -29 110 0
-50 -34 120 0
-50 -39 130 0
-50 -44 140 0
-151 -152 -61 0
-151 -153 -71 0
-151 -154 -81 0
-151 -155 -91 0
-151 -156 -101 0
-151 -157 -111 0
-151 -158 -121 0
-151 -159 -131 0
-151 -160 -141 0
-152 -151 -52 0
-152 -153 -72 0
-152 -154 -82 0
-152 -155 -92 0
-152 -156 -102 0
-152 -157 -112 0
-152 -158 -122 0
-152 -159 -132 0
-152 -160 -142 0
-153 -151 -53 0
-153 -152 -63 0
-153 -154 -83 0
-153 -155 -93 0
-153 -156 -103 0
-153 -157 -113 0
-153 -158 -123 0
-153 -159 -133 0
-153 -160 -143 0
-154 -151 -54 0
-154 -152 -64 0
-154 -153 -74 0
-154 -155 -94 0
-154 -156 -104 0
-154 -157 -114 0
-154 -158 -124 0
-154 -159 -134 0
-154 -160 -144 0
-155 -151 -55 0
-155 -152 -65 0
-155 -153 -75 0
-155 -154 -85 0
-155 -156 -105 0
-155 -157 -115 0
-155 -158 -125 0
-155 -159 -135 0
-155 -160 -145 0
-156 -151 -56 0
-156 -152 -66 0
-156 -153 -76 0
-156 -154 -86 0
-156 -155 -96 0
-156 -157 -116 0
-156 -158 -126 0
-156 -159 -136 0
-156 -160 -146 0
-157 -151 -57 0
-157 -152 -67 0
-157 -153 -77 0
-157 -154 -87 0
-157 -155 -97 0
-157 -156 -107 0
-157 -158 -127 0
-157 -159 -137 0
-157 -160 -147 0
-158 -151 -58 0
-158 -152 -68 0
-158 -153 -78 0
-158 -154 -88 0
-158 -155 -98 0
-158 -156 -108 0
-158 -157 -118 0
-158 -159 -138 0
-158 -160 -148 0
-159 -151 -59 0
-159 -152 -69 0
-159 -153 -79 0
-159 -154 -89 0
-159 -155 -99 0
-159 -156 -109 0
-159 -157 -119 0
-159 -158 -129 0
-159 -160 -149 0
-160 -151 -60 0
-160 -152 -70 0
-160 -153 -80 0
-160 -154 -90 0
-160 -155 -100 0
-160 -156 -110 0
-160 -157 -120 0
-160 -158 -130 0
-160 -159 -140 0
-161 -162 -61 0
-161 -163 -71 0
-161 -164 -81 0
-161 -165 -91 0
-161 -166 -101 0
-161 -167 -111 0
-161 -168 -121 0
-161 -169 -131 0
-161 -170 -141 0
-162 -161 -52 0
-162 -163 -72 0
-162 -164 -82 0
-162 -165 -92 0
-162 -166 -102 0
-162 -167 -112 0
-162 -168 -122 0
-162 -169 -132 0
-162 -170 -142 0
-163 -161 -53 0
-163 -162 -63 0
-163 -164 -83 0
-163 -165 -93 0
-163 -166 -103 0
-163 -167 -113 0
-163 -168 -123 0
-163 -169 -133 0
-163 -170 -143 0
-164 -161 -54 0
-164 -162 -64 0
-164 -163 -74 0
-164 -165 -94 0
-164 -166 -104 0
-164 -167 -114 0
-164 -168 -124 0
-164 -169 -134 0
-164 -170 -144 0
-165 -161 -55 0
-165 -162 -65 0
-165 -163 -75 0
-165 -164 -85 0
-165 -166 -105 0
-165 -167 -115 0
-165 -168 -125 0
-165 -169 -135 0
-165 -170 -145 0
-166 -161 -56 0
-166 -162 -66 0
-166 -163 -76 0
-166 -164 -86 0
-166 -165 -96 0
-166 -167 -116 0
-166 -168 -126 0
-166 -169 -136 0
-166 -170 -146 0
-167 -161 -57 0
-167 -162 -67 0
-167 -163 -77 0
-167 -164 -87 0
-167 -165 -97 0
-167 -166 -107 0
-167 -168 -127 0
-167 -169 -137 0
-167 -170 -147 0
-168 -161 -58 0
-168 -162 -68 0
-168 -163 -78 0
-168 -164 -88 0
-168 -165 -98 0
-168 -166 -108 0
-168 -167 -118 0
-168 -169 -138 0
-168 -170 -148 0
-169 -161 -59 0
-169 -162 -69 0
-169 -163 -79 0
-169 -164 -89 0
-169 -165 -99 0
-169 -166 -109 0
-169 -167 -119 0
-169 -168 -129 0
-169 -170 -149 0
-170 -161 -60 0
-170 -162 -70 0
-170 -163 -80 0
-170 -164 -90 0
-170 -165 -100 0
-170 -166 -110 0
-170 -167 -120 0
-170 -168 -130 0
-170 -169 -140 0
-171 -172 -61 0
-171 -173 -71 0
-171 -174 -81 0
-171 -175 -91 0
-171 -176 -101 0
-171 -177 -111 0
-171 -178 -121 0
-171 -179 -131 0
-171 -180 -141 0
-172 -171 -52 0
-172 -173 -72 0
-172 -174 -82 0
-172 -175 -92 0
-172 -176 -102 0
-172 -177 -112 0
-172 -178 -122 0
-172 -179 -132 0
-172 -180 -142 0
-173 -171 -53 0
-173 -172 -63 0
-173 -174 -83 0
-173 -175 -93 0
-173 -176 -103 0
-173 -177 -113 0
-173 -178 -123 0
-173 -179 -133 0
-173 -180 -143 0
-174 -171 -54 0
-174 -172 -64 0
-174 -173 -74 0
-174 -175 -94 0
-174 -176 -104 0
-174 -177 -114 0
-174 -178 -124 0
-174 -179 -134 0
-174 -180 -144 0
-175 -171 -55 0
-175 -172 -65 0
-175 -173 -75 0
-175 -174 -85 0
-175 -176 -105 0
-175 -177 -115 0
-175 -178 -125 0
-175 -179 -135 0
-175 -180 -145 0
-176 -171 -56 0
-176 -172 -66 0
-176 -173 -76 0
-176 -174 -86 0
-176 -175 -96 0
-176 -177 -116 0
-176 -178 -126 0
-176 -179 -136 0
-176 -180 -146 0
-177 -171 -57 0
-177 -172 -67 0
-177 -173 -77 0
-177 -174 -87 0
-177 -175 -97 0
-177 -176 -107 0
-177 -178 -127 0
-177 -179 -137 0
-177 -180 -147 0
-178 -171 -58 0
-178 -172 -68 0
-178 -173 -78 0
-178 -174 -88 0
-178 -175 -98 0
-178 -176 -108 0
-178 -177 -118 0
-178 -179 -138 0
-178 -180 -148 0
-179 -171 -59 0
-179 -172 -69 0
-179 -173 -79 0
-179 -174 -89 0
-179 -175 -99 0
-179 -176 -109 0
-179 -177 -119 0
-179 -178 -129 0
-179 -180 -149 0
-180 -171 -60 0
-180 -172 -70 0
-180 -173 -80 0
-180 -174 -90 0
-180 -175 -100 0
-180 -176 -110 0
-180 -177 -120 0
-180 -178 -130 0
-180 -179 -140 0
-181 -182 -61 0
-181 -183 -71 0
-181 -184 -81 0
-181 -185 -91 0
-181 -186 -101 0
-181 -187 -111 0
-181 -188 -121 0
-181 -189 -131 0
-181 -190 -141 0
-182 -181 -52 0
-182 -183 -72 0
-182 -184 -82 0
-182 -185 -92 0
-182 -186 -102 0
-182 -187 -112 0
-182 -188 -122 0
-182 -189 -132 0
-182 -190 -142 0
-183 -181 -53 0
-183 -182 -63 0
-183 -184 -83 0
-183 -185 -93 0
-183 -186 -103 0
-183 -187 -113 0
-183 -188 -123 0
-183 -189 -133 0
-183 -190 -143 0
-184 -181 -54 0
-184 -182 -64 0
-184 -183 -74 0
-184 -185 -94 0
-184 -186 -104 0
-184 -187 -114 0
-184 -188 -124 0
-184 -189 -134 0
-184 -190 -144 0
-185 -181 -55 0
-185 -182 -65 0
-185 -183 -75 0
-185 -184 -85 0
-185 -186 -105 0
-185 -187 -115 0
-185 -188 -125 0
-185 -189 -135 0
-185 -190 -145 0
-186 -181 -56 0
-186 -182 -66 0
-186 -183 -76 0
-186 -184 -86 0
-186 -185 -96 0
-186 -187 -116 0
-186 -188 -126 0
-186 -189 -136 0
-186 -190 -146 0
-187 -181 -57 0
-187 -182 -67 0
-187 -183 -77 0
-187 -184 -87 0
-187 -185 -97 0
-187 -186 -107 0
-187 -188 -127 0
-187 -189 -137 0
-187 -190 -147 0
-188 -181 -58 0
-188 -182 -68 0
-188 -183 -78 0
-188 -184 -88 0
-188 -185 -98 0
-188 -186 -108 0
-188 -187 -118 0
-188 -189 -138 0
-188 -190 -148 0
-189 -181 -59 0
-189 -182 -69 0
-189 -183 -79 0
-189 -184 -89 0
-189 -185 -99 0
-189 -186 -109 0
-189 -187 -119 0
-189 -188 -129 0
-189 -190 -149 0
-190 -181 -60 0
-190 -182 -70 0
-190 -183 -80 0
-190 -184 -90 0
-190 -185 -100 0
-190 -186 -110 0
-190 -187 -120 0
-190 -188 -130 0
-190 -189 -140 0
151 161 171 181 0
152 162 172 182 0
153 163 173 183 0
154 164 174 184 0
155 165 175 185 0
156 166 176 186 0
157 167 177 187 0
158 168 178 188 0
159 169 179 189 0
160 170 180 190 0
